job_count = 30 ;
duration = [|9, 19, 16, 17, 7, 3|24, 4, 10, 16, 10, 4|6, 15, 15, 5, 3, 6|11, 5, 6, 4, 16, 6|19, 19, 20, 10, 10, 10|10, 13, 20, 9, 14, 4|3, 15, 9, 8, 14, 2|19, 18, 4, 13, 14, 3|14, 22, 8, 13, 9, 8|24, 11, 12, 11, 3, 5|5, 9, 8, 3, 10, 8|20, 21, 15, 10, 4, 2|7, 4, 4, 17, 5, 11|16, 21, 13, 8, 2, 7|10, 18, 11, 4, 15, 4|15, 14, 12, 18, 5, 11|9, 12, 18, 9, 14, 8|4, 5, 8, 7, 6, 9|16, 16, 5, 8, 15, 2|16, 13, 15, 4, 4, 12|6, 3, 11, 2, 16, 10|3, 5, 8, 4, 8, 5|19, 13, 12, 10, 7, 3|15, 16, 2, 8, 6, 5|17, 15, 3, 12, 8, 3|12, 16, 18, 16, 14, 14|11, 16, 15, 18, 4, 4|3, 20, 5, 2, 9, 5|21, 19, 10, 7, 3, 11|17, 9, 6, 17, 14, 6|] ;
machine_count = 6 ;
cost = [|19, 25, 35, 22, 34, 42|26, 20, 24, 25, 33, 44|21, 20, 25, 27, 24, 40|21, 26, 21, 34, 24, 52|20, 29, 20, 39, 36, 44|25, 33, 25, 36, 40, 30|20, 26, 23, 32, 46, 46|17, 29, 25, 40, 46, 44|28, 29, 34, 30, 35, 35|22, 23, 22, 23, 42, 38|27, 29, 24, 24, 25, 53|29, 18, 36, 40, 44, 43|16, 28, 19, 32, 43, 30|27, 30, 30, 34, 44, 42|24, 30, 22, 38, 29, 35|31, 17, 23, 26, 43, 40|29, 24, 37, 36, 32, 32|25, 29, 30, 25, 47, 43|27, 23, 29, 37, 31, 48|17, 20, 37, 26, 36, 53|18, 21, 28, 38, 33, 37|22, 17, 32, 21, 35, 39|23, 25, 24, 23, 31, 42|17, 28, 35, 41, 26, 52|31, 23, 27, 29, 36, 53|21, 32, 27, 23, 25, 31|29, 30, 27, 37, 30, 51|30, 32, 31, 21, 35, 40|28, 33, 34, 24, 35, 36|20, 19, 36, 23, 29, 31|] ;
deadline = [33, 33, 33, 33, 33, 33, 33, 33, 33, 33, 33, 33, 33, 33, 33, 33, 33, 33, 33, 33, 33, 33, 33, 33, 33, 33, 33, 33, 33, 33] ;
release = [0, 0, 0, 0, 0, 0, 0, 0, 0, 0, 0, 0, 0, 0, 0, 0, 0, 0, 0, 0, 0, 0, 0, 0, 0, 0, 0, 0, 0, 0] ;
resource = [|1, 1, 1, 1, 1, 1|9, 9, 9, 9, 9, 9|1, 1, 1, 1, 1, 1|7, 7, 7, 7, 7, 7|3, 3, 3, 3, 3, 3|8, 8, 8, 8, 8, 8|5, 5, 5, 5, 5, 5|4, 4, 4, 4, 4, 4|7, 7, 7, 7, 7, 7|1, 1, 1, 1, 1, 1|3, 3, 3, 3, 3, 3|8, 8, 8, 8, 8, 8|5, 5, 5, 5, 5, 5|3, 3, 3, 3, 3, 3|4, 4, 4, 4, 4, 4|8, 8, 8, 8, 8, 8|2, 2, 2, 2, 2, 2|6, 6, 6, 6, 6, 6|9, 9, 9, 9, 9, 9|5, 5, 5, 5, 5, 5|5, 5, 5, 5, 5, 5|6, 6, 6, 6, 6, 6|9, 9, 9, 9, 9, 9|1, 1, 1, 1, 1, 1|6, 6, 6, 6, 6, 6|2, 2, 2, 2, 2, 2|3, 3, 3, 3, 3, 3|6, 6, 6, 6, 6, 6|2, 2, 2, 2, 2, 2|1, 1, 1, 1, 1, 1|] ;
capacities = [10, 10, 10, 10, 10, 10] ;
